50
17243

125 567
989 253
235 675
119 623
462 788
286 58
446 276
187 98
327 969
363 213
943 397
879 908
656 365
771 543
946 463
768 964
382 849
106 502
963 348
937 310
960 3
875 712
554 622
385 947
869 72
308 37
558 660
358 559
851 833
965 158
289 541
525 712
90 76
491 642
421 495
773 395
139 439
361 403
921 842
169 806
939 514
789 195
626 75
230 468
871 511
208 283
22 682
389 980
830 190
441 219
